
Gurobi 9.1.2 (mac64, gurobi_cl) logging started Sat Aug 21 14:19:49 2021

Academic license - for non-commercial use only - expires 2022-08-16
Using license file /Users/kounuki/gurobi.lic
Set parameter LogFile to value gurobi.log
